Route #1: 6 2 30
Route #2: 1 43 41 42
Route #3: 22 28 21
Route #4: 47 36 37 20
Route #5: 48 5 15 29
Route #6: 4 45 34
Route #7: 46 8 52
Route #8: 27 13 54 19 35
Route #9: 7 53 14
Route #10: 11 38
Route #11: 10 31 39
Route #12: 9 25 18
Route #13: 32 50 44
Route #14: 3 24 49 23 16
Route #15: 33 51 17
Route #16: 40 12 26
Cost 972